nNurses = 193;
nHours = 36;
minHours = 9;
maxHours = 10;
maxConsec = 9;
maxPresence = 32;
demand = [41, 36, 35, 36, 31, 26, 30, 32, 35, 40, 36, 31, 33, 31, 28, 25, 27, 32, 30, 30, 26, 27, 25, 27, 31, 35, 35, 40, 38, 36, 41, 42, 39, 36, 34, 30];
